data/mip_solutions/furman_sahinidis/transshipment/7sp1_gurobi.sol
Elapsed time: 0.0801701545715
Nodes explored: 0
Upper bound: 7.0
Lower bound: 7.0
y[0,0]=1
y[0,1]=1
y[0,2]=1
y[1,2]=1
y[1,3]=1
y[2,1]=1
y[2,4]=1
q[0,0,1]=800.0
q[0,0,2]=480.0
q[0,0,3]=2400.0
q[0,0,4]=320.0
q[0,0,5]=1280.0
q[0,1,3]=1535.6
q[0,1,4]=80.0
q[0,2,1]=527.0
q[0,2,3]=697.4
q[1,2,2]=790.5
q[1,2,3]=3255.1
q[1,3,1]=595.2
q[1,3,2]=595.2
q[2,1,3]=3378.4
q[2,1,4]=575.2
q[2,4,5]=4110.4
r[0,2]=73.0
r[0,3]=433.0
r[0,5]=160.0
r[1,1]=1904.0
r[1,2]=2498.8
r[1,3]=1827.1
r[2,3]=1008.0
r[2,4]=2669.6
r[2,5]=2766.4
